benchmarks_CP/INST_36x36/30/inst36x36_30_61.dzn
S=6;
start=[|
34,	-1,	-1,	14,	-1,	-1,	-1,	-1,	-1,	-1,	-1,	5,	19,	-1,	-1,	-1,	28,	-1,	-1,	-1,	-1,	9,	-1,	-1,	27,	-1,	18,	6,	-1,	-1,	-1,	31,	-1,	-1,	32,	-1|
-1,	-1,	-1,	25,	-1,	-1,	35,	-1,	-1,	-1,	-1,	-1,	-1,	14,	34,	-1,	-1,	-1,	-1,	17,	11,	-1,	-1,	32,	-1,	-1,	-1,	-1,	-1,	-1,	-1,	18,	-1,	-1,	-1,	-1|
-1,	17,	3,	-1,	-1,	-1,	-1,	6,	-1,	-1,	23,	11,	-1,	-1,	-1,	-1,	-1,	-1,	-1,	-1,	-1,	-1,	-1,	-1,	-1,	22,	-1,	-1,	-1,	31,	-1,	14,	-1,	-1,	-1,	-1|
-1,	-1,	24,	6,	-1,	-1,	-1,	-1,	26,	-1,	-1,	31,	12,	-1,	-1,	-1,	-1,	-1,	5,	-1,	14,	-1,	-1,	4,	33,	7,	-1,	-1,	-1,	-1,	9,	-1,	19,	-1,	-1,	-1|
-1,	4,	-1,	8,	27,	36,	-1,	-1,	24,	20,	-1,	-1,	5,	23,	-1,	17,	13,	-1,	-1,	-1,	15,	-1,	-1,	-1,	-1,	-1,	-1,	19,	-1,	-1,	-1,	-1,	11,	-1,	-1,	-1|
-1,	-1,	15,	-1,	7,	21,	-1,	-1,	17,	-1,	-1,	-1,	18,	3,	-1,	-1,	-1,	-1,	-1,	-1,	27,	-1,	-1,	12,	-1,	35,	-1,	-1,	-1,	-1,	-1,	5,	-1,	36,	-1,	-1|
-1,	35,	-1,	-1,	-1,	-1,	-1,	20,	-1,	26,	-1,	-1,	10,	-1,	-1,	24,	-1,	-1,	-1,	-1,	-1,	-1,	-1,	-1,	-1,	-1,	-1,	33,	-1,	-1,	-1,	-1,	36,	17,	4,	2|
-1,	-1,	32,	-1,	34,	26,	28,	-1,	15,	-1,	14,	33,	-1,	-1,	16,	19,	-1,	9,	-1,	-1,	20,	6,	-1,	-1,	-1,	-1,	-1,	1,	-1,	-1,	-1,	-1,	-1,	-1,	-1,	-1|
1,	25,	-1,	-1,	-1,	-1,	-1,	-1,	-1,	-1,	-1,	27,	-1,	-1,	-1,	-1,	-1,	-1,	-1,	22,	-1,	-1,	-1,	-1,	-1,	-1,	-1,	-1,	-1,	-1,	-1,	-1,	14,	-1,	23,	31|
-1,	-1,	-1,	-1,	12,	-1,	11,	-1,	-1,	-1,	-1,	-1,	-1,	-1,	-1,	-1,	-1,	22,	-1,	-1,	-1,	-1,	-1,	26,	9,	-1,	35,	8,	-1,	-1,	-1,	-1,	-1,	20,	-1,	-1|
-1,	-1,	23,	-1,	-1,	-1,	16,	25,	-1,	-1,	32,	-1,	-1,	-1,	-1,	-1,	-1,	35,	14,	-1,	-1,	-1,	-1,	-1,	10,	-1,	-1,	18,	-1,	30,	-1,	-1,	9,	8,	-1,	-1|
-1,	-1,	27,	28,	-1,	-1,	-1,	23,	-1,	-1,	-1,	-1,	25,	-1,	-1,	-1,	-1,	5,	16,	-1,	-1,	11,	-1,	-1,	2,	15,	17,	-1,	-1,	-1,	-1,	-1,	10,	32,	-1,	-1|
-1,	-1,	-1,	-1,	-1,	-1,	-1,	-1,	-1,	22,	-1,	7,	35,	-1,	-1,	-1,	-1,	-1,	-1,	-1,	-1,	-1,	29,	-1,	6,	-1,	-1,	26,	-1,	20,	-1,	-1,	-1,	-1,	-1,	-1|
-1,	-1,	6,	-1,	-1,	1,	-1,	12,	-1,	-1,	-1,	-1,	-1,	-1,	5,	30,	17,	10,	-1,	-1,	-1,	-1,	-1,	-1,	-1,	11,	-1,	-1,	-1,	36,	-1,	-1,	-1,	-1,	-1,	22|
-1,	-1,	-1,	-1,	-1,	29,	-1,	-1,	-1,	-1,	20,	-1,	-1,	-1,	28,	-1,	-1,	-1,	22,	-1,	19,	17,	24,	-1,	-1,	-1,	-1,	35,	-1,	-1,	-1,	-1,	-1,	10,	-1,	21|
5,	12,	-1,	-1,	9,	27,	24,	-1,	-1,	31,	8,	16,	-1,	11,	-1,	-1,	-1,	25,	-1,	7,	-1,	-1,	32,	10,	13,	-1,	-1,	-1,	-1,	-1,	1,	-1,	28,	-1,	-1,	3|
18,	-1,	-1,	-1,	35,	17,	-1,	30,	-1,	-1,	4,	-1,	-1,	-1,	-1,	-1,	32,	-1,	-1,	-1,	-1,	-1,	-1,	-1,	16,	-1,	3,	-1,	7,	24,	8,	11,	-1,	25,	-1,	-1|
-1,	-1,	36,	-1,	-1,	-1,	-1,	-1,	-1,	-1,	17,	-1,	-1,	-1,	7,	-1,	-1,	13,	-1,	-1,	-1,	-1,	-1,	-1,	31,	-1,	-1,	-1,	10,	-1,	-1,	6,	12,	-1,	24,	-1|
-1,	-1,	-1,	-1,	1,	-1,	-1,	-1,	16,	-1,	28,	10,	-1,	-1,	29,	-1,	-1,	-1,	-1,	-1,	9,	20,	-1,	2,	25,	31,	23,	7,	-1,	22,	-1,	21,	-1,	6,	11,	30|
-1,	-1,	-1,	30,	-1,	20,	-1,	22,	-1,	-1,	-1,	-1,	14,	-1,	25,	-1,	27,	-1,	-1,	-1,	-1,	24,	-1,	29,	11,	-1,	-1,	-1,	-1,	-1,	-1,	-1,	-1,	-1,	-1,	10|
-1,	-1,	-1,	-1,	-1,	-1,	-1,	26,	-1,	-1,	34,	23,	-1,	-1,	22,	5,	11,	-1,	-1,	36,	-1,	-1,	-1,	21,	-1,	-1,	-1,	-1,	29,	-1,	-1,	20,	33,	-1,	-1,	14|
-1,	33,	-1,	15,	-1,	22,	-1,	-1,	-1,	-1,	36,	-1,	1,	-1,	23,	18,	2,	12,	-1,	-1,	10,	-1,	16,	19,	-1,	-1,	-1,	-1,	-1,	-1,	5,	-1,	-1,	-1,	-1,	-1|
-1,	-1,	-1,	23,	36,	-1,	14,	5,	-1,	2,	27,	25,	7,	28,	-1,	-1,	19,	34,	-1,	1,	6,	-1,	-1,	-1,	26,	-1,	-1,	24,	-1,	-1,	22,	-1,	-1,	-1,	-1,	-1|
-1,	18,	-1,	-1,	-1,	-1,	-1,	21,	-1,	9,	-1,	-1,	-1,	-1,	35,	-1,	-1,	-1,	-1,	-1,	-1,	-1,	-1,	-1,	-1,	10,	-1,	-1,	-1,	-1,	-1,	-1,	-1,	1,	-1,	-1|
-1,	-1,	-1,	-1,	-1,	-1,	-1,	-1,	-1,	-1,	-1,	-1,	-1,	-1,	-1,	-1,	-1,	-1,	-1,	24,	-1,	4,	-1,	-1,	-1,	36,	-1,	-1,	-1,	-1,	32,	-1,	13,	-1,	-1,	18|
8,	-1,	16,	-1,	-1,	-1,	-1,	-1,	-1,	33,	-1,	-1,	-1,	4,	-1,	-1,	21,	29,	-1,	-1,	-1,	-1,	-1,	17,	-1,	-1,	-1,	-1,	11,	-1,	34,	-1,	-1,	-1,	-1,	25|
-1,	6,	-1,	-1,	-1,	-1,	-1,	31,	-1,	-1,	-1,	8,	-1,	17,	-1,	-1,	34,	26,	-1,	-1,	-1,	-1,	-1,	-1,	29,	-1,	-1,	-1,	-1,	10,	-1,	15,	35,	-1,	-1,	-1|
-1,	-1,	14,	-1,	-1,	-1,	-1,	-1,	-1,	-1,	-1,	29,	-1,	-1,	-1,	8,	-1,	-1,	12,	32,	-1,	-1,	-1,	-1,	-1,	-1,	-1,	15,	-1,	-1,	-1,	-1,	2,	-1,	-1,	-1|
-1,	-1,	-1,	-1,	-1,	-1,	12,	-1,	-1,	10,	-1,	-1,	-1,	-1,	-1,	-1,	22,	-1,	-1,	-1,	-1,	-1,	36,	-1,	-1,	13,	-1,	-1,	-1,	-1,	-1,	-1,	20,	-1,	-1,	-1|
-1,	-1,	-1,	-1,	-1,	4,	-1,	-1,	-1,	32,	-1,	-1,	-1,	-1,	19,	20,	-1,	-1,	-1,	-1,	34,	-1,	-1,	-1,	22,	-1,	-1,	-1,	-1,	8,	-1,	-1,	6,	-1,	-1,	-1|
22,	-1,	-1,	12,	17,	-1,	27,	-1,	-1,	-1,	-1,	-1,	-1,	-1,	-1,	-1,	30,	-1,	4,	-1,	28,	-1,	15,	-1,	21,	9,	-1,	-1,	-1,	32,	-1,	-1,	16,	5,	-1,	-1|
27,	-1,	-1,	-1,	-1,	-1,	-1,	-1,	-1,	16,	29,	-1,	-1,	12,	-1,	-1,	-1,	20,	-1,	9,	-1,	-1,	33,	14,	-1,	2,	-1,	-1,	-1,	-1,	-1,	25,	15,	-1,	-1,	-1|
-1,	-1,	-1,	-1,	18,	-1,	17,	-1,	7,	-1,	-1,	-1,	-1,	-1,	1,	-1,	-1,	-1,	-1,	-1,	-1,	-1,	-1,	31,	-1,	-1,	-1,	-1,	15,	11,	-1,	4,	8,	-1,	33,	-1|
20,	21,	-1,	1,	-1,	-1,	-1,	9,	22,	-1,	-1,	-1,	3,	-1,	14,	-1,	-1,	27,	-1,	-1,	16,	-1,	34,	-1,	-1,	-1,	-1,	12,	-1,	6,	-1,	-1,	-1,	-1,	2,	19|
-1,	8,	-1,	-1,	-1,	25,	26,	35,	-1,	-1,	12,	-1,	-1,	-1,	-1,	-1,	-1,	16,	-1,	19,	30,	27,	-1,	23,	-1,	28,	-1,	-1,	-1,	13,	10,	1,	-1,	22,	-1,	-1|
36,	-1,	34,	-1,	11,	9,	-1,	-1,	28,	15,	33,	14,	-1,	-1,	-1,	-1,	-1,	-1,	6,	-1,	-1,	-1,	2,	-1,	35,	-1,	-1,	16,	-1,	1,	-1,	26,	-1,	-1,	-1,	-1|];
